[ti. 04. april 14:48:07 +0200 2023]  ./input/alternate_g_np/50-4-3.gcc
Set parameter Username
Academic license - for non-commercial use only - expires 2024-03-28
Set parameter TimeLimit to value 1800
Set parameter PreCrush to value 1
Set parameter LazyConstraints to value 1
Gurobi Optimizer version 10.0.1 build v10.0.1rc0 (linux64)

CPU model: AMD Ryzen 9 5950X 16-Core Processor, instruction set [SSE2|AVX|AVX2]
Thread count: 16 physical cores, 32 logical processors, using up to 32 threads

Optimize a model with 54 rows, 250 columns and 650 nonzeros
Model fingerprint: 0x97990e96
Variable types: 0 continuous, 250 integer (250 binary)
Coefficient statistics:
  Matrix range     [1e+00, 1e+00]
  Objective range  [2e+00, 1e+02]
  Bounds range     [1e+00, 1e+00]
  RHS range        [1e+00, 1e+00]
Presolve time: 0.00s
Presolved: 54 rows, 250 columns, 650 nonzeros
Variable types: 0 continuous, 250 integer (250 binary)

Root relaxation: objective 2.336000e+03, 4 iterations, 0.00 seconds (0.00 work units)

    Nodes    |    Current Node    |     Objective Bounds      |     Work
 Expl Unexpl |  Obj  Depth IntInf | Incumbent    BestBd   Gap | It/Node Time

     0     0 2336.00000    0    4          - 2336.00000      -     -    0s
     0     0 2336.00000    0    6          - 2336.00000      -     -    0s
     0     0 2336.00000    0    -          - 2336.00000      -     -    0s
     0     0 2336.00000    0   12          - 2336.00000      -     -    0s
     0     0 2336.00000    0    -          - 2336.00000      -     -    0s
     0     0 2336.00000    0    8          - 2336.00000      -     -    0s
     0     0 2336.00000    0    -          - 2336.00000      -     -    0s
     0     0 2336.00000    0    8          - 2336.00000      -     -    0s
     0     2 2336.00000    0    6          - 2336.00000      -     -    0s
 31973 16568 2208.36364   51   30          - 2336.00000      -  15.3    5s
*38388 19375              38    2071.0000000 2336.00000  12.8%  17.0    6s
H39599 16919                    2183.0000000 2336.00000  7.01%  17.3    6s
H40237 16917                    2185.0000000 2336.00000  6.91%  17.5    6s
H42043 17292                    2196.0000000 2336.00000  6.38%  18.7    7s
H42049 16753                    2209.0000000 2336.00000  5.75%  18.7    7s
 51153 20380 2231.66667   34   32 2209.00000 2336.00000  5.75%  23.8   10s
H51228 19611                    2220.0000000 2336.00000  5.23%  23.9   10s
H52506 17359                    2237.0000118 2336.00000  4.43%  24.6   11s
 71841 17582     cutoff   41      2237.00001 2329.86014  4.15%  34.0   15s
 100217 13638     cutoff   38      2237.00001 2263.00000  1.16%  40.9   20s
 119843 15699 2245.50000   34   69 2237.00001 2262.00000  1.12%  48.9   25s
 143702 16487     cutoff   53      2237.00001 2257.52967  0.92%  54.1   30s
 167662 13859     cutoff   38      2237.00001 2251.50000  0.65%  57.1   35s
 197370  8647     cutoff   58      2237.00001 2241.00000  0.18%  59.2   40s
 224461  6108     cutoff   52      2237.00001 2240.00000  0.13%  59.3   45s

Cutting planes:
  User: 54
  Lazy constraints: 1963

Explored 248643 nodes (14470373 simplex iterations) in 47.82 seconds (46.17 work units)
Thread count was 32 (of 32 available processors)

Solution count 7: 2237 2220 2209 ... 2071

Optimal solution found (tolerance 1.00e-04)
Best objective 2.237000011766e+03, best bound 2.237000011766e+03, gap 0.0000%

User-callback calls 503384, time in user-callback 13.16 sec
Minimal separator inequalities added: 147792
Indegree inequalities added: 591781
WRONG SOLUTION
[ti. 04. april 14:48:55 +0200 2023]  done

